4 96 28 82 62 53 15 0 31 93 24 88 5 83 57 6 20 25 44 40 43 72 2 64 16 13 61 8 22 70 51 56 29 76 80 99 7 37 77 35 71 95 81 12 98 60 86 27 10 73 58 50 89 42 75 78 18 17 67 90 23 9 19 38 79 69 91 63 48 30 92 66 39 74 55 36 97 33 46 45 94 1 59 65 34 84 3 32 87 54 11 47 14 21 26 68 85 52 49 41